
Gurobi 10.0.1 (win64) logging started Fri Oct  6 18:53:35 2023

Set parameter LogFile to value "./results//log/URT_09_makespan_heurFalse.log"
Gurobi Optimizer version 10.0.1 build v10.0.1rc0 (win64)

CPU model: AMD Ryzen 7 3700X 8-Core Processor, instruction set [SSE2|AVX|AVX2]
Thread count: 8 physical cores, 16 logical processors, using up to 16 threads

Optimize a model with 95 rows, 100 columns and 337 nonzeros
Model fingerprint: 0x085549c7
Variable types: 0 continuous, 100 integer (90 binary)
Coefficient statistics:
  Matrix range     [1e+00, 1e+07]
  Objective range  [1e+00, 1e+00]
  Bounds range     [1e+00, 1e+00]
  RHS range        [1e+00, 3e+07]
Presolve removed 53 rows and 75 columns
Presolve time: 0.00s
Presolved: 42 rows, 25 columns, 120 nonzeros
Variable types: 0 continuous, 25 integer (18 binary)
Found heuristic solution: objective 188.0000000

Root relaxation: objective 7.800000e+01, 10 iterations, 0.00 seconds (0.00 work units)

    Nodes    |    Current Node    |     Objective Bounds      |     Work
 Expl Unexpl |  Obj  Depth IntInf | Incumbent    BestBd   Gap | It/Node Time

     0     0   78.00000    0    7  188.00000   78.00000  58.5%     -    0s
H    0     0                     175.0000000   78.00000  55.4%     -    0s
H    0     0                     161.0000000   78.00000  51.6%     -    0s
H    0     0                     159.0000000   90.00000  43.4%     -    0s
H    0     0                     145.0000000  105.00000  27.6%     -    0s
     0     0  105.00000    0    8  145.00000  105.00000  27.6%     -    0s
H    0     0                     138.0000000  105.00000  23.9%     -    0s
H    0     0                     136.0000000  105.00000  22.8%     -    0s

Cutting planes:
  Implied bound: 5
  MIR: 1
  RLT: 6
  Relax-and-lift: 4

Explored 1 nodes (28 simplex iterations) in 0.07 seconds (0.00 work units)
Thread count was 16 (of 16 available processors)

Solution count 7: 136 138 145 ... 188

Optimal solution found (tolerance 1.00e-04)
Best objective 1.360000000000e+02, best bound 1.360000000000e+02, gap 0.0000%
Warning: constraint name "precedence between 0,0 to 0,1 if x_[0,0,0,1,1]=0, i.e. 0,1 before 0,0" has a space
Warning: constraint name "precedence between 0,0 to 0,1 if x_[0,0,0,1,1]=0, i.e. 0,1 before 0,0" has a space
Warning: default constraint names used to write mps file
